
Gurobi 7.0.1 (linux64) logging started Sun Jul  2 20:13:07 2017

Optimize a model with 21691 rows, 14464 columns and 73015 nonzeros
Variable types: 0 continuous, 14464 integer (14464 binary)
Coefficient statistics:
  Matrix range     [1e+00, 9e+00]
  Objective range  [1e+00, 1e+00]
  Bounds range     [1e+00, 1e+00]
  RHS range        [1e+00, 5e+01]
Presolve removed 21350 rows and 14165 columns
Presolve time: 0.07s
Presolved: 341 rows, 299 columns, 2588 nonzeros
Variable types: 0 continuous, 299 integer (299 binary)

Root relaxation: objective 7.000000e+00, 49 iterations, 0.00 seconds

    Nodes    |    Current Node    |     Objective Bounds      |     Work
 Expl Unexpl |  Obj  Depth IntInf | Incumbent    BestBd   Gap | It/Node Time

     0     0    7.00000    0    2          -    7.00000      -     -    0s
     0     0    7.00000    0    3          -    7.00000      -     -    0s
     0     0    7.00000    0    2          -    7.00000      -     -    0s
     0     0    7.00000    0    2          -    7.00000      -     -    0s
     0     0    7.00000    0    2          -    7.00000      -     -    0s
H    0     0                       6.0000000    7.00000  16.7%     -    0s
     0     0     cutoff    0         6.00000    6.00000  0.00%     -    0s

Cutting planes:
  Gomory: 1
  MIR: 1
  Lazy constraints: 8

Explored 0 nodes (109 simplex iterations) in 0.21 seconds
Thread count was 12 (of 12 available processors)

Solution count 1: 6 
Pool objective bound 6

Optimal solution found (tolerance 1.00e-04)
Best objective 6.000000000000e+00, best bound 6.000000000000e+00, gap 0.0000%
Optimize a model with 21691 rows, 14464 columns and 73015 nonzeros
Variable types: 0 continuous, 14464 integer (14464 binary)
Coefficient statistics:
  Matrix range     [1e+00, 9e+00]
  Objective range  [1e-01, 8e-01]
  Bounds range     [1e+00, 1e+00]
  RHS range        [1e+00, 5e+01]
Presolve removed 21350 rows and 14165 columns
Presolve time: 0.06s
Presolved: 341 rows, 299 columns, 2588 nonzeros

Loaded MIP start with objective -1.11022e-16

Variable types: 0 continuous, 299 integer (299 binary)

Root relaxation: objective 4.000000e+00, 58 iterations, 0.00 seconds

    Nodes    |    Current Node    |     Objective Bounds      |     Work
 Expl Unexpl |  Obj  Depth IntInf | Incumbent    BestBd   Gap | It/Node Time

     0     0    4.00000    0    2   -0.00000    4.00000      -     -    0s
H    0     0                       3.0000000    4.00000  33.3%     -    0s
     0     0    4.00000    0    3    3.00000    4.00000  33.3%     -    0s
     0     0    4.00000    0    2    3.00000    4.00000  33.3%     -    0s
     0     0    4.00000    0    7    3.00000    4.00000  33.3%     -    0s

Cutting planes:
  Gomory: 1
  Zero half: 1

Explored 0 nodes (186 simplex iterations) in 0.18 seconds
Thread count was 12 (of 12 available processors)

Solution count 2: 3 -1.11022e-16 
Pool objective bound 3

Optimal solution found (tolerance 1.00e-04)
Best objective 3.000000000000e+00, best bound 3.000000000000e+00, gap 0.0000%
Optimize a model with 21691 rows, 14464 columns and 73015 nonzeros
Variable types: 0 continuous, 14464 integer (14464 binary)
Coefficient statistics:
  Matrix range     [1e+00, 9e+00]
  Objective range  [3e-01, 7e-01]
  Bounds range     [1e+00, 1e+00]
  RHS range        [1e+00, 5e+01]
Presolve removed 21350 rows and 14165 columns
Presolve time: 0.06s
Presolved: 341 rows, 299 columns, 2588 nonzeros

Loaded MIP start with objective -3.33067e-16

Variable types: 0 continuous, 299 integer (299 binary)

Root relaxation: objective 1.000000e+00, 58 iterations, 0.00 seconds

    Nodes    |    Current Node    |     Objective Bounds      |     Work
 Expl Unexpl |  Obj  Depth IntInf | Incumbent    BestBd   Gap | It/Node Time

     0     0    1.00000    0    2   -0.00000    1.00000      -     -    0s
     0     0    1.00000    0    3   -0.00000    1.00000      -     -    0s
     0     0    1.00000    0    2   -0.00000    1.00000      -     -    0s
     0     0    1.00000    0    7   -0.00000    1.00000      -     -    0s

Cutting planes:
  Gomory: 1
  Zero half: 1

Explored 0 nodes (186 simplex iterations) in 0.18 seconds
Thread count was 12 (of 12 available processors)

Solution count 1: -3.33067e-16 
Pool objective bound -3.33067e-16

Optimal solution found (tolerance 1.00e-04)
Best objective -3.330669073875e-16, best bound -3.330669073875e-16, gap -
